NAME : LPS-n30-m194
COMMENT : (Lartu-Peter-Santi Plot, instance 10994 out of 39200. 30 customers.)
TYPE : CVRP
DIMENSION : 30
EDGE_WEIGHT_TYPE : EUC_2D
CAPACITY : 73
NODE_COORD_SECTION
 1 38 46
 2 97 47
 3 82 97
 4 22 10
 5 43 15
 6 4 50
 7 68 46
 8 27 61
 9 80 38
 10 93 40
 11 19 5
 12 84 6
 13 19 67
 14 80 6
 15 45 10
 16 3 21
 17 53 18
 18 22 19
 19 68 88
 20 1 82
 21 10 64
 22 72 83
 23 86 42
 24 60 33
 25 87 27
 26 7 74
 27 73 59
 28 42 50
 29 90 47
 30 74 95
DEMAND_SECTION
1 0
2 30
3 40
4 43
5 73
6 49
7 52
8 13
9 36
10 31
11 5
12 29
13 36
14 11
15 72
16 27
17 13
18 19
19 69
20 19
21 6
22 20
23 31
24 34
25 38
26 25
27 62
28 52
29 20
30 20
DEPOT_SECTION
 1
 -1
EOF
